n = 28;
k = 4;
maxsize = 28;
nML = 7;
nCL = 7;
deg = [4, 1, 4, 4, 4, 4, 4, 4, 4, 3, 2, 4, 4, 4, 4, 4, 4, 4, 4, 4, 3, 4, 4, 4, 3, 4, 4, 4];
ML = array2d(1..7, 1..2, [19, 7, 12, 16, 13, 26, 18, 15, 20, 3, 6, 24, 2, 8]);
CL = array2d(1..7, 1..2, [14, 9, 4, 22, 21, 10, 23, 1, 5, 28, 17, 27, 25, 11]);
A = array2d(1..28, 1..28, [ 0, 0, 0, 0, 0, 0, 0, 1, 1, 0, 0, 0, 0, 0, 0, 0, 0, 0, 0, 0, 1, 0, 0, 0, 0, 0, 1, 0, 0, 0, 0, 0, 0, 0, 0, 0, 0, 0, 0, 0, 0, 0, 0, 0, 0, 0, 0, 0, 0, 1, 0, 0, 0, 0, 0, 0, 0, 0, 0, 0, 0, 1, 0, 0, 0, 0, 0, 0, 0, 0, 0, 0, 0, 1, 0, 0, 0, 0, 0, 0, 1, 0, 0, 1, 0, 0, 0, 0, 0, 0, 1, 0, 0, 0, 0, 0, 0, 0, 0, 0, 0, 1, 0, 1, 0, 1, 0, 0, 0, 0, 0, 0, 0, 0, 0, 0, 0, 0, 0, 0, 0, 0, 0, 0, 0, 0, 1, 0, 0, 0, 0, 0, 0, 1, 0, 0, 0, 0, 1, 1, 0, 0, 1, 0, 0, 0, 0, 0, 1, 0, 0, 0, 0, 0, 1, 0, 1, 0, 0, 0, 0, 0, 0, 0, 0, 0, 0, 0, 0, 0, 0, 1, 0, 0, 0, 0, 0, 1, 0, 1, 0, 1, 0, 0, 0, 0, 0, 0, 0, 0, 0, 0, 0, 0, 0, 0, 1, 0, 0, 0, 0, 0, 0, 0, 0, 0, 0, 0, 1, 0, 0, 0, 0, 0, 0, 1, 0, 0, 1, 0, 0, 0, 0, 0, 1, 0, 0, 0, 0, 1, 0, 0, 0, 0, 0, 0, 0, 1, 0, 1, 0, 0, 0, 0, 0, 0, 0, 0, 0, 0, 0, 0, 0, 0, 0, 0, 0, 0, 1, 0, 0, 0, 0, 0, 0, 0, 0, 1, 0, 0, 0, 0, 1, 0, 0, 0, 0, 0, 0, 0, 0, 0, 0, 0, 0, 0, 0, 0, 0, 0, 0, 0, 1, 0, 0, 0, 0, 0, 0, 0, 1, 0, 0, 0, 0, 0, 0, 0, 0, 0, 0, 0, 0, 0, 1, 0, 0, 0, 0, 0, 1, 0, 1, 0, 0, 0, 0, 0, 0, 0, 0, 0, 0, 0, 1, 0, 0, 0, 0, 0, 0, 0, 0, 1, 0, 0, 1, 1, 0, 0, 0, 0, 0, 0, 0, 1, 0, 0, 0, 0, 0, 0, 0, 0, 0, 0, 0, 0, 0, 0, 1, 0, 1, 0, 0, 0, 0, 0, 0, 0, 0, 0, 0, 0, 0, 0, 1, 1, 0, 0, 0, 0, 0, 0, 0, 0, 1, 1, 0, 0, 0, 0, 0, 1, 0, 0, 0, 0, 1, 0, 0, 0, 0, 0, 0, 0, 0, 0, 0, 0, 0, 0, 0, 0, 0, 0, 0, 0, 1, 1, 0, 0, 0, 0, 0, 0, 0, 0, 1, 0, 0, 0, 0, 1, 0, 0, 0, 0, 0, 0, 0, 0, 0, 1, 0, 0, 0, 0, 0, 0, 0, 0, 1, 0, 0, 1, 0, 0, 0, 0, 0, 0, 0, 1, 0, 0, 0, 0, 1, 1, 0, 0, 0, 0, 0, 0, 0, 0, 0, 0, 0, 0, 1, 0, 0, 1, 0, 0, 0, 0, 0, 0, 0, 0, 0, 0, 0, 0, 0, 0, 0, 0, 0, 0, 0, 0, 0, 0, 0, 1, 0, 0, 0, 0, 0, 0, 1, 1, 1, 0, 0, 0, 0, 0, 0, 1, 0, 0, 0, 1, 0, 0, 0, 0, 1, 0, 0, 0, 0, 1, 0, 0, 0, 0, 0, 0, 0, 0, 0, 0, 1, 0, 0, 0, 0, 0, 0, 0, 0, 1, 1, 0, 0, 0, 0, 0, 0, 0, 0, 0, 0, 0, 0, 0, 0, 0, 0, 0, 0, 1, 0, 1, 1, 0, 0, 0, 0, 0, 0, 0, 0, 0, 0, 0, 0, 0, 0, 0, 0, 0, 0, 0, 0, 0, 0, 1, 0, 0, 0, 0, 0, 0, 0, 1, 0, 0, 0, 0, 0, 1, 0, 0, 0, 0, 1, 0, 0, 0, 0, 0, 0, 1, 0, 0, 0, 0, 0, 0, 0, 0, 0, 0, 0, 0, 0, 0, 0, 1, 0, 1, 0, 0, 1, 0, 0, 0, 0, 0, 0, 1, 0, 0, 0, 0, 1, 0, 0, 0, 0, 0, 0, 0, 0, 0, 0, 0, 0, 0, 0, 0, 1, 0, 0, 0, 0, 0, 0, 0, 0, 1, 0, 0, 0, 0, 0, 0, 0, 0, 0, 0, 0, 0, 0, 0, 0, 0, 1, 0, 0, 0, 0, 0, 1, 1, 0, 0, 1, 0, 1, 0, 0, 0, 1, 0, 0, 0, 0, 0, 0, 1, 0, 0, 0, 0, 0, 0, 0, 0, 0, 0, 0, 0, 0, 1, 0, 0, 0, 0, 1, 0, 1, 0, 0, 0, 0, 0, 0, 0, 0, 0, 0, 0, 0, 0, 0, 0, 0, 1, 0, 0, 1, 0, 0, 0 ]);
W = array2d(1..28, 1..28, [ 2, -9, 9, 6, 2, 3, -1, -8, -10, 4, 2, -3, -2, -7, 4, -4, 5, 8, 1, 8, 5, 1, 2, -7, 2, 0, 8, -7, 6, 1, 7, 7, 9, 3, 8, -10, 2, 3, -6, -1, 9, 6, 3, 1, 2, -10, 9, 3, -4, -3, -3, 2, -3, 1, -9, -5, 1, 9, -9, -2, -1, 10, 5, 1, 3, -7, 2, -9, -1, 2, 10, -9, -2, -2, 8, -7, 2, -8, -10, -7, 10, 9, -2, 2, -8, 3, -3, 8, -10, 8, 1, -4, -1, -3, -9, 1, -2, 9, 2, 9, 3, 7, 6, -7, 9, 1, 8, -1, -10, 7, -6, 7, 7, 2, 7, 10, 2, 1, -10, -8, -4, -3, -6, 8, 0, -6, 10, 7, -1, 9, -5, -3, -3, -1, 9, 3, 4, -10, 10, 0, -9, 0, -5, -8, -8, -8, -7, -9, 10, -2, -1, 5, 3, -1, 4, -4, -10, 7, 3, 5, -4, -1, 3, -5, 3, -8, 2, 7, 7, 8, 4, 8, 3, 1, -6, 5, 10, -6, -4, 6, 5, -10, -8, 0, 1, 3, -3, -7, -5, 6, 8, -1, 5, 2, -9, 2, 4, -7, 4, 9, 5, -9, 2, 7, -3, -10, 1, -10, -3, 9, -7, 9, -3, 4, 8, 5, 2, 1, 3, 7, -7, 1, 2, 0, 7, -2, -4, -5, 7, 7, -4, -6, -2, 5, 1, -3, 1, 4, 8, 9, -4, 8, -4, -10, -4, -10, -7, -3, -3, 9, 6, 4, 3, 8, 2, 1, 3, -4, -10, -2, -4, -6, -8, 2, 10, -9, -9, -7, 7, -1, -9, -7, -1, 5, -2, 2, 4, 1, 1, -3, -8, 1, 4, 8, 7, 6, 5, 6, 4, -2, 0, -2, 5, -7, -5, -8, -8, 3, -8, -2, -4, -7, -2, 9, 6, 7, -7, -10, 10, -6, 6, -5, 2, 2, 3, 9, -5, 0, 10, -8, -7, -10, 4, 4, 6, -3, 2, 8, 3, -5, 7, -9, -1, 3, -6, -3, 10, -6, 8, 10, -3, -6, 5, 8, 5, -9, -8, 5, -3, -9, -6, 7, -5, 9, -7, 7, 10, 8, -6, -7, -4, -5, -5, 2, -2, 2, -8, -9, 8, 6, 4, 3, -3, -8, 3, -2, 2, -7, 4, -9, 1, 5, 0, -9, 2, -2, 1, 0, -2, -3, -2, -1, 8, 4, 8, 3, -8, 8, 3, 1, -7, -3, -1, -8, 2, -4, -9, 5, -2, -7, -9, 1, 5, 10, 6, 2, 0, 2, -8, 6, -2, -1, 9, -9, 7, -8, -3, -10, 2, -3, -2, -3, 9, -7, 9, -1, 9, -1, 8, 4, 4, 0, 6, 7, 2, -8, 5, -9, -2, -3, 3, -3, -5, 8, 2, 1, -6, -4, -8, -3, 7, -7, 0, 6, -8, -9, 2, -10, 6, 5, -10, -1, 0, -1, 5, 10, 1, -10, -5, 0, 7, -5, 10, -10, -5, 4, 5, 1, 3, -1, -9, 1, 2, -3, -5, 3, -9, 9, 7, -10, 5, -9, -1, 3, 10, -1, -2, 9, -4, 5, 1, 2, 5, -7, -10, 7, -6, -7, 5, -10, 7, 9, -6, -5, 9, -3, 8, 8, 6, 9, 9, 5, -8, 6, -2, -4, 0, 0, -5, -1, 3, 8, -5, -10, 0, 9, -1, 7, -1, 4, -5, -3, 4, 10, 3, -5, 6, -9, 2, -3, -3, -4, -2, -8, -5, 9, -2, -6, 1, -4, 1, -3, 10, 1, -2, -1, 5, -7, 6, 5, -6, -6, 10, -1, -7, 2, 9, 9, 3, 3, 6, -3, -8, -3, -6, -2, -5, -8, -10, -9, -3, 8, 1, 7, 4, -8, 0, 3, 4, 10, -9, 0, -2, -8, 3, 9, -6, 2, -9, -5, 2, -3, -9, 9, 4, -5, -1, 2, 6, 5, 2, 0, -1, -9, -10, 1, -4, -10, 4, -10, -2, -9, 2, 6, 5, 0, 6, 4, 8, 3, -8, 7, -1, -1, 8, -9, -6, -6, -10, -7, 8, 9, -5, -5, 4, -9, -6, 10, 7, -10, -3, -2, 1, -8, 0, -1, -5, 0, -6, 8, -1, 10, -10, 1, -7, -3, 0, 1, -6, 6, 2, 4, -7, -6, 8, -10, -6, 7, 4, 4, -6, -1, -7, -1, -7, -5, -6, -6, -4, -2, -8, -3, -4, -6, 2, 5, 2, -8, 4, 9, -1, 8, -4, -7, 10, 9, -3, -6, 0, -5, -7, -3, -5, 7, 0, -4, 3, -5, 8, 2, 3, 2, 8, -4, -4, -1, -10, 6, 8, 0, 3, -3, 7, -3, 9, 4, 6, -2, -4, 7, -5, 0, -4, -5, 5, -2, -4, 0, -8, 1, -2, 0, -8, -4, 8, 0, 8, -9, 0, -3, 4, 3, -5, 8 ]);